% File represents an instance of a Composite Structure problem to be solved by a CP framework
% Created on 2025-03-25 14:06:13.191
T = 28;
n = 25;
m = 40;
edges = [(2, 1),
(7, 6),
(12, 11),
(17, 16),
(22, 21),
(3, 2),
(8, 7),
(13, 12),
(18, 17),
(23, 22),
(3, 4),
(8, 9),
(13, 14),
(19, 18),
(24, 23),
(5, 4),
(9, 10),
(14, 15),
(19, 20),
(24, 25),
(6, 1),
(6, 11),
(11, 16),
(16, 21),
(7, 2),
(7, 12),
(12, 17),
(17, 22),
(8, 3),
(8, 13),
(13, 18),
(18, 23),
(9, 4),
(9, 14),
(19, 14),
(19, 24),
(10, 5),
(10, 15),
(20, 15),
(25, 20)];
counts = [|4, 2, 4, 4,
|6, 4, 4, 6,
|6, 4, 6, 6,
|2, 2, 6, 4,
|4, 2, 6, 4,
|4, 4, 4, 4,
|6, 4, 4, 10,
|6, 4, 6, 12,
|4, 4, 6, 8,
|4, 2, 6, 8,
|2, 4, 4, 4,
|2, 4, 4, 6,
|6, 4, 4, 10,
|4, 4, 4, 6,
|4, 2, 2, 4,
|2, 4, 4, 2,
|2, 4, 4, 4,
|4, 4, 4, 10,
|4, 8, 4, 10,
|4, 2, 4, 6,
|2, 2, 2, 2,
|2, 4, 4, 2,
|4, 4, 4, 2,
|4, 6, 4, 10,
|4, 6, 4, 6|];
